(set-logic QF_S)
(declare-fun var0 () String)
(declare-fun var1 () String)
(declare-fun var2 () String)
(declare-fun var3 () String)
(declare-fun var4 () Int)
(declare-fun var5 () Int)
(declare-fun var6 () Int)
(declare-fun var7 () Int)
(assert (str.in.re (str.at (str.replace var0 var1 var2) (str.indexof var3 var0 var4)) (re.* re.allchar)))
(assert (> (str.to.int var0) (str.indexof var1 "BR." var5)))
(assert (str.contains var3 var2))
(assert (str.contains (str.substr (str.replace var1 var0 var3) (str.indexof var1 var2 var6) (str.indexof var0 var1 var7)) (str.replace var0 var1 var1)))
(check-sat)